;; translated from ./bv/svd-some-loop.c.vmt
;; original benchmark available at: https://es-static.fbk.eu/people/griggio/ic3ia/index.html
;; author: Alberto Griggio <griggio@fbk.eu>
(set-logic HORN)
(declare-fun state (Bool Bool Bool Bool Bool Bool (_ BitVec 32) (_ BitVec 32) (_ BitVec 32) (_ BitVec 32) (_ BitVec 32) (_ BitVec 32) (_ BitVec 32)) Bool)
(assert (forall ((|.PC.3| Bool) (|.PC.2| Bool) (|.PC.1| Bool) (|.PC.0| Bool) (|.PC.0.next| Bool) (|.PC.1.next| Bool) (|.PC.2.next| Bool) (|.PC.3.next| Bool) (|.PC.4.next| Bool) (|.PC.5.next| Bool) (|__RET__$main.next| (_ BitVec 32)) (|__RET__$main| (_ BitVec 32)) (|j__7$main.next| (_ BitVec 32)) (|j__7$main| (_ BitVec 32)) (|l__3$main.next| (_ BitVec 32)) (|l__3$main| (_ BitVec 32)) (|n__1$main| (_ BitVec 32)) (|n__1$main.next| (_ BitVec 32)) (|k__9$main.next| (_ BitVec 32)) (|k__9$main| (_ BitVec 32)) (|i__5$main| (_ BitVec 32)) (|i__5$main.next| (_ BitVec 32)) (|NONDET| (_ BitVec 32)) (|NONDET.next| (_ BitVec 32)) (|__NONDET_INLINE_INIT__2__5$main#0| (_ BitVec 32)) (|.PC.5| Bool) (|.PC.4| Bool)) (=> (let ((.def_24 (not .PC.5)))
(let ((.def_21 (not .PC.4)))
(let ((.def_18 (not .PC.3)))
(let ((.def_15 (not .PC.2)))
(let ((.def_12 (not .PC.1)))
(let ((.def_10 (not .PC.0)))
(let ((.def_13 (and .def_10 .def_12)))
(let ((.def_16 (and .def_13 .def_15)))
(let ((.def_19 (and .def_16 .def_18)))
(let ((.def_22 (and .def_19 .def_21)))
(let ((.def_25 (and .def_22 .def_24)))
.def_25))))))))))) (state |.PC.0| |.PC.1| |.PC.2| |.PC.3| |.PC.4| |.PC.5| |j__7$main| |__RET__$main| |l__3$main| |k__9$main| |NONDET| |i__5$main| |n__1$main|))))
(assert (forall ((|.PC.3| Bool) (|.PC.2| Bool) (|.PC.1| Bool) (|.PC.0| Bool) (|.PC.0.next| Bool) (|.PC.1.next| Bool) (|.PC.2.next| Bool) (|.PC.3.next| Bool) (|.PC.4.next| Bool) (|.PC.5.next| Bool) (|__RET__$main.next| (_ BitVec 32)) (|__RET__$main| (_ BitVec 32)) (|j__7$main.next| (_ BitVec 32)) (|j__7$main| (_ BitVec 32)) (|l__3$main.next| (_ BitVec 32)) (|l__3$main| (_ BitVec 32)) (|n__1$main| (_ BitVec 32)) (|n__1$main.next| (_ BitVec 32)) (|k__9$main.next| (_ BitVec 32)) (|k__9$main| (_ BitVec 32)) (|i__5$main| (_ BitVec 32)) (|i__5$main.next| (_ BitVec 32)) (|NONDET| (_ BitVec 32)) (|NONDET.next| (_ BitVec 32)) (|__NONDET_INLINE_INIT__2__5$main#0| (_ BitVec 32)) (|.PC.5| Bool) (|.PC.4| Bool)) (=> (and (state |.PC.0| |.PC.1| |.PC.2| |.PC.3| |.PC.4| |.PC.5| |j__7$main| |__RET__$main| |l__3$main| |k__9$main| |NONDET| |i__5$main| |n__1$main|) (let ((.def_21 (not .PC.4)))
(let ((.def_18 (not .PC.3)))
(let ((.def_15 (not .PC.2)))
(let ((.def_12 (not .PC.1)))
(let ((.def_10 (not .PC.0)))
(let ((.def_13 (and .def_10 .def_12)))
(let ((.def_16 (and .def_13 .def_15)))
(let ((.def_19 (and .def_16 .def_18)))
(let ((.def_22 (and .def_19 .def_21)))
(let ((.def_654 (and .def_22 .PC.5)))
(let ((.def_143 (not .PC.0.next)))
(let ((.def_53 (not .PC.1.next)))
(let ((.def_144 (and .def_53 .def_143)))
(let ((.def_57 (not .PC.2.next)))
(let ((.def_145 (and .def_57 .def_144)))
(let ((.def_60 (not .PC.3.next)))
(let ((.def_229 (and .def_60 .def_145)))
(let ((.def_63 (not .PC.4.next)))
(let ((.def_230 (and .def_63 .def_229)))
(let ((.def_231 (and .PC.5.next .def_230)))
(let ((.def_655 (and .def_231 .def_654)))
(let ((.def_235 (and .def_10 .PC.1)))
(let ((.def_236 (and .def_15 .def_235)))
(let ((.def_649 (and .def_18 .def_236)))
(let ((.def_650 (and .PC.4 .def_649)))
(let ((.def_24 (not .PC.5)))
(let ((.def_651 (and .def_24 .def_650)))
(let ((.def_42 (= __RET__$main __RET__$main.next)))
(let ((.def_38 (= j__7$main j__7$main.next)))
(let ((.def_223 (and .def_38 .def_42)))
(let ((.def_46 (= l__3$main l__3$main.next)))
(let ((.def_224 (and .def_46 .def_223)))
(let ((.def_87 (= n__1$main.next n__1$main)))
(let ((.def_225 (and .def_87 .def_224)))
(let ((.def_50 (= k__9$main k__9$main.next)))
(let ((.def_226 (and .def_50 .def_225)))
(let ((.def_90 (= i__5$main.next i__5$main)))
(let ((.def_227 (and .def_90 .def_226)))
(let ((.def_92 (= NONDET.next NONDET)))
(let ((.def_228 (and .def_92 .def_227)))
(let ((.def_232 (and .def_228 .def_231)))
(let ((.def_652 (and .def_232 .def_651)))
(let ((.def_150 (and .PC.0 .PC.1)))
(let ((.def_219 (and .def_15 .def_150)))
(let ((.def_393 (and .def_18 .def_219)))
(let ((.def_645 (and .PC.4 .def_393)))
(let ((.def_646 (and .def_24 .def_645)))
(let ((.def_647 (and .def_232 .def_646)))
(let ((.def_376 (and .def_13 .PC.2)))
(let ((.def_438 (and .def_18 .def_376)))
(let ((.def_641 (and .PC.4 .def_438)))
(let ((.def_642 (and .def_24 .def_641)))
(let ((.def_643 (and .def_232 .def_642)))
(let ((.def_100 (and .PC.0 .def_12)))
(let ((.def_252 (and .PC.2 .def_100)))
(let ((.def_253 (and .def_18 .def_252)))
(let ((.def_637 (and .PC.4 .def_253)))
(let ((.def_638 (and .def_24 .def_637)))
(let ((.def_639 (and .def_232 .def_638)))
(let ((.def_279 (and .PC.2 .def_235)))
(let ((.def_280 (and .def_18 .def_279)))
(let ((.def_633 (and .PC.4 .def_280)))
(let ((.def_634 (and .def_24 .def_633)))
(let ((.def_635 (and .def_232 .def_634)))
(let ((.def_151 (and .PC.2 .def_150)))
(let ((.def_152 (and .def_18 .def_151)))
(let ((.def_629 (and .PC.4 .def_152)))
(let ((.def_630 (and .def_24 .def_629)))
(let ((.def_631 (and .def_232 .def_630)))
(let ((.def_474 (bvslt k__9$main (_ bv1 32))))
(let ((.def_488 (not .def_474)))
(let ((.def_456 (bvslt n__1$main k__9$main)))
(let ((.def_473 (not .def_456)))
(let ((.def_489 (and .def_473 .def_488)))
(let ((.def_503 (and .def_473 .def_489)))
(let ((.def_290 (bvslt j__7$main (_ bv1 32))))
(let ((.def_305 (not .def_290)))
(let ((.def_517 (and .def_305 .def_503)))
(let ((.def_270 (bvslt n__1$main j__7$main)))
(let ((.def_289 (not .def_270)))
(let ((.def_531 (and .def_289 .def_517)))
(let ((.def_78 (bvslt i__5$main (_ bv1 32))))
(let ((.def_79 (not .def_78)))
(let ((.def_604 (and .def_79 .def_531)))
(let ((.def_157 (bvslt n__1$main i__5$main)))
(let ((.def_172 (not .def_157)))
(let ((.def_618 (and .def_172 .def_604)))
(let ((.def_529 (bvadd (_ bv1 32) k__9$main)))
(let ((.def_530 (= k__9$main.next .def_529)))
(let ((.def_619 (and .def_530 .def_618)))
(let ((.def_620 (and .def_38 .def_619)))
(let ((.def_621 (and .def_42 .def_620)))
(let ((.def_622 (and .def_46 .def_621)))
(let ((.def_623 (and .def_87 .def_622)))
(let ((.def_624 (and .def_90 .def_623)))
(let ((.def_625 (and .def_92 .def_624)))
(let ((.def_55 (and .def_53 .PC.0.next)))
(let ((.def_58 (and .def_55 .def_57)))
(let ((.def_61 (and .def_58 .def_60)))
(let ((.def_464 (and .def_61 .PC.4.next)))
(let ((.def_66 (not .PC.5.next)))
(let ((.def_465 (and .def_66 .def_464)))
(let ((.def_626 (and .def_465 .def_625)))
(let ((.def_101 (and .def_15 .def_100)))
(let ((.def_102 (and .def_18 .def_101)))
(let ((.def_566 (and .PC.4 .def_102)))
(let ((.def_567 (and .def_24 .def_566)))
(let ((.def_627 (and .def_567 .def_626)))
(let ((.def_94 (and .PC.1.next .PC.0.next)))
(let ((.def_129 (and .PC.2.next .def_94)))
(let ((.def_130 (and .def_60 .def_129)))
(let ((.def_613 (and .PC.4.next .def_130)))
(let ((.def_614 (and .def_66 .def_613)))
(let ((.def_605 (and .def_157 .def_604)))
(let ((.def_606 (and .def_38 .def_605)))
(let ((.def_607 (and .def_42 .def_606)))
(let ((.def_608 (and .def_46 .def_607)))
(let ((.def_609 (and .def_87 .def_608)))
(let ((.def_610 (and .def_50 .def_609)))
(let ((.def_611 (and .def_90 .def_610)))
(let ((.def_612 (and .def_92 .def_611)))
(let ((.def_615 (and .def_612 .def_614)))
(let ((.def_616 (and .def_567 .def_615)))
(let ((.def_182 (and .PC.1.next .def_143)))
(let ((.def_263 (and .PC.2.next .def_182)))
(let ((.def_264 (and .def_60 .def_263)))
(let ((.def_599 (and .PC.4.next .def_264)))
(let ((.def_600 (and .def_66 .def_599)))
(let ((.def_591 (and .def_78 .def_531)))
(let ((.def_592 (and .def_38 .def_591)))
(let ((.def_593 (and .def_42 .def_592)))
(let ((.def_594 (and .def_46 .def_593)))
(let ((.def_595 (and .def_87 .def_594)))
(let ((.def_596 (and .def_50 .def_595)))
(let ((.def_597 (and .def_90 .def_596)))
(let ((.def_598 (and .def_92 .def_597)))
(let ((.def_601 (and .def_598 .def_600)))
(let ((.def_602 (and .def_567 .def_601)))
(let ((.def_114 (and .def_55 .PC.2.next)))
(let ((.def_115 (and .def_60 .def_114)))
(let ((.def_586 (and .PC.4.next .def_115)))
(let ((.def_587 (and .def_66 .def_586)))
(let ((.def_518 (and .def_270 .def_517)))
(let ((.def_519 (and .def_38 .def_518)))
(let ((.def_520 (and .def_42 .def_519)))
(let ((.def_521 (and .def_46 .def_520)))
(let ((.def_522 (and .def_87 .def_521)))
(let ((.def_523 (and .def_50 .def_522)))
(let ((.def_524 (and .def_90 .def_523)))
(let ((.def_525 (and .def_92 .def_524)))
(let ((.def_588 (and .def_525 .def_587)))
(let ((.def_589 (and .def_567 .def_588)))
(let ((.def_285 (and .PC.2.next .def_144)))
(let ((.def_389 (and .def_60 .def_285)))
(let ((.def_581 (and .PC.4.next .def_389)))
(let ((.def_582 (and .def_66 .def_581)))
(let ((.def_504 (and .def_290 .def_503)))
(let ((.def_505 (and .def_38 .def_504)))
(let ((.def_506 (and .def_42 .def_505)))
(let ((.def_507 (and .def_46 .def_506)))
(let ((.def_508 (and .def_87 .def_507)))
(let ((.def_509 (and .def_50 .def_508)))
(let ((.def_510 (and .def_90 .def_509)))
(let ((.def_511 (and .def_92 .def_510)))
(let ((.def_583 (and .def_511 .def_582)))
(let ((.def_584 (and .def_567 .def_583)))
(let ((.def_95 (and .def_57 .def_94)))
(let ((.def_96 (and .def_60 .def_95)))
(let ((.def_576 (and .PC.4.next .def_96)))
(let ((.def_577 (and .def_66 .def_576)))
(let ((.def_490 (and .def_456 .def_489)))
(let ((.def_491 (and .def_38 .def_490)))
(let ((.def_492 (and .def_42 .def_491)))
(let ((.def_493 (and .def_46 .def_492)))
(let ((.def_494 (and .def_87 .def_493)))
(let ((.def_495 (and .def_50 .def_494)))
(let ((.def_496 (and .def_90 .def_495)))
(let ((.def_497 (and .def_92 .def_496)))
(let ((.def_578 (and .def_497 .def_577)))
(let ((.def_579 (and .def_567 .def_578)))
(let ((.def_183 (and .def_57 .def_182)))
(let ((.def_570 (and .def_60 .def_183)))
(let ((.def_571 (and .PC.4.next .def_570)))
(let ((.def_572 (and .def_66 .def_571)))
(let ((.def_475 (and .def_473 .def_474)))
(let ((.def_476 (and .def_38 .def_475)))
(let ((.def_477 (and .def_42 .def_476)))
(let ((.def_478 (and .def_46 .def_477)))
(let ((.def_479 (and .def_87 .def_478)))
(let ((.def_480 (and .def_50 .def_479)))
(let ((.def_481 (and .def_90 .def_480)))
(let ((.def_482 (and .def_92 .def_481)))
(let ((.def_573 (and .def_482 .def_572)))
(let ((.def_574 (and .def_567 .def_573)))
(let ((.def_349 (bvadd (_ bv1 32) j__7$main)))
(let ((.def_350 (= j__7$main.next .def_349)))
(let ((.def_558 (and .def_350 .def_456)))
(let ((.def_559 (and .def_42 .def_558)))
(let ((.def_560 (and .def_46 .def_559)))
(let ((.def_561 (and .def_87 .def_560)))
(let ((.def_562 (and .def_50 .def_561)))
(let ((.def_563 (and .def_90 .def_562)))
(let ((.def_564 (and .def_92 .def_563)))
(let ((.def_390 (and .def_63 .def_389)))
(let ((.def_391 (and .def_66 .def_390)))
(let ((.def_565 (and .def_391 .def_564)))
(let ((.def_568 (and .def_565 .def_567)))
(let ((.def_247 (and .def_16 .PC.3)))
(let ((.def_554 (and .PC.4 .def_247)))
(let ((.def_555 (and .def_24 .def_554)))
(let ((.def_556 (and .def_232 .def_555)))
(let ((.def_242 (and .PC.3 .def_101)))
(let ((.def_550 (and .PC.4 .def_242)))
(let ((.def_551 (and .def_24 .def_550)))
(let ((.def_552 (and .def_232 .def_551)))
(let ((.def_237 (and .PC.3 .def_236)))
(let ((.def_546 (and .PC.4 .def_237)))
(let ((.def_547 (and .def_24 .def_546)))
(let ((.def_548 (and .def_232 .def_547)))
(let ((.def_220 (and .PC.3 .def_219)))
(let ((.def_542 (and .PC.4 .def_220)))
(let ((.def_543 (and .def_24 .def_542)))
(let ((.def_544 (and .def_232 .def_543)))
(let ((.def_532 (and .def_530 .def_531)))
(let ((.def_533 (and .def_38 .def_532)))
(let ((.def_534 (and .def_42 .def_533)))
(let ((.def_535 (and .def_46 .def_534)))
(let ((.def_536 (and .def_87 .def_535)))
(let ((.def_537 (and .def_90 .def_536)))
(let ((.def_538 (and .def_92 .def_537)))
(let ((.def_451 (and .PC.4.next .def_229)))
(let ((.def_452 (and .def_66 .def_451)))
(let ((.def_539 (and .def_452 .def_538)))
(let ((.def_467 (and .def_19 .PC.4)))
(let ((.def_468 (and .def_24 .def_467)))
(let ((.def_540 (and .def_468 .def_539)))
(let ((.def_199 (and .PC.3.next .def_95)))
(let ((.def_515 (and .PC.4.next .def_199)))
(let ((.def_516 (and .def_66 .def_515)))
(let ((.def_526 (and .def_516 .def_525)))
(let ((.def_527 (and .def_468 .def_526)))
(let ((.def_184 (and .PC.3.next .def_183)))
(let ((.def_501 (and .PC.4.next .def_184)))
(let ((.def_502 (and .def_66 .def_501)))
(let ((.def_512 (and .def_502 .def_511)))
(let ((.def_513 (and .def_468 .def_512)))
(let ((.def_166 (and .def_58 .PC.3.next)))
(let ((.def_486 (and .PC.4.next .def_166)))
(let ((.def_487 (and .def_66 .def_486)))
(let ((.def_498 (and .def_487 .def_497)))
(let ((.def_499 (and .def_468 .def_498)))
(let ((.def_146 (and .PC.3.next .def_145)))
(let ((.def_471 (and .PC.4.next .def_146)))
(let ((.def_472 (and .def_66 .def_471)))
(let ((.def_483 (and .def_472 .def_482)))
(let ((.def_484 (and .def_468 .def_483)))
(let ((.def_443 (= l__3$main k__9$main.next)))
(let ((.def_457 (and .def_443 .def_456)))
(let ((.def_458 (and .def_38 .def_457)))
(let ((.def_459 (and .def_42 .def_458)))
(let ((.def_460 (and .def_46 .def_459)))
(let ((.def_461 (and .def_87 .def_460)))
(let ((.def_462 (and .def_90 .def_461)))
(let ((.def_463 (and .def_92 .def_462)))
(let ((.def_466 (and .def_463 .def_465)))
(let ((.def_469 (and .def_466 .def_468)))
(let ((.def_444 (and .def_289 .def_443)))
(let ((.def_445 (and .def_38 .def_444)))
(let ((.def_446 (and .def_42 .def_445)))
(let ((.def_447 (and .def_46 .def_446)))
(let ((.def_448 (and .def_87 .def_447)))
(let ((.def_449 (and .def_90 .def_448)))
(let ((.def_450 (and .def_92 .def_449)))
(let ((.def_453 (and .def_450 .def_452)))
(let ((.def_439 (and .def_21 .def_438)))
(let ((.def_440 (and .def_24 .def_439)))
(let ((.def_454 (and .def_440 .def_453)))
(let ((.def_271 (and .def_38 .def_270)))
(let ((.def_272 (and .def_42 .def_271)))
(let ((.def_273 (and .def_46 .def_272)))
(let ((.def_274 (and .def_87 .def_273)))
(let ((.def_275 (and .def_50 .def_274)))
(let ((.def_276 (and .def_90 .def_275)))
(let ((.def_277 (and .def_92 .def_276)))
(let ((.def_116 (and .def_63 .def_115)))
(let ((.def_117 (and .def_66 .def_116)))
(let ((.def_437 (and .def_117 .def_277)))
(let ((.def_441 (and .def_437 .def_440)))
(let ((.def_377 (and .PC.3 .def_376)))
(let ((.def_433 (and .PC.4 .def_377)))
(let ((.def_434 (and .def_24 .def_433)))
(let ((.def_435 (and .def_232 .def_434)))
(let ((.def_371 (and .PC.3 .def_252)))
(let ((.def_429 (and .PC.4 .def_371)))
(let ((.def_430 (and .def_24 .def_429)))
(let ((.def_431 (and .def_232 .def_430)))
(let ((.def_366 (and .PC.3 .def_279)))
(let ((.def_425 (and .PC.4 .def_366)))
(let ((.def_426 (and .def_24 .def_425)))
(let ((.def_427 (and .def_232 .def_426)))
(let ((.def_361 (and .PC.3 .def_151)))
(let ((.def_421 (and .PC.4 .def_361)))
(let ((.def_422 (and .def_24 .def_421)))
(let ((.def_423 (and .def_232 .def_422)))
(let ((.def_306 (and .def_289 .def_305)))
(let ((.def_321 (and .def_289 .def_306)))
(let ((.def_336 (and .def_79 .def_321)))
(let ((.def_348 (and .def_172 .def_336)))
(let ((.def_351 (and .def_348 .def_350)))
(let ((.def_352 (and .def_42 .def_351)))
(let ((.def_353 (and .def_46 .def_352)))
(let ((.def_354 (and .def_87 .def_353)))
(let ((.def_355 (and .def_50 .def_354)))
(let ((.def_356 (and .def_90 .def_355)))
(let ((.def_357 (and .def_92 .def_356)))
(let ((.def_97 (and .def_63 .def_96)))
(let ((.def_98 (and .def_66 .def_97)))
(let ((.def_418 (and .def_98 .def_357)))
(let ((.def_394 (and .def_21 .def_393)))
(let ((.def_395 (and .def_24 .def_394)))
(let ((.def_419 (and .def_395 .def_418)))
(let ((.def_333 (and .PC.3.next .def_129)))
(let ((.def_413 (and .PC.4.next .def_333)))
(let ((.def_414 (and .def_66 .def_413)))
(let ((.def_337 (and .def_157 .def_336)))
(let ((.def_338 (and .def_38 .def_337)))
(let ((.def_339 (and .def_42 .def_338)))
(let ((.def_340 (and .def_46 .def_339)))
(let ((.def_341 (and .def_87 .def_340)))
(let ((.def_342 (and .def_50 .def_341)))
(let ((.def_343 (and .def_90 .def_342)))
(let ((.def_344 (and .def_92 .def_343)))
(let ((.def_415 (and .def_344 .def_414)))
(let ((.def_416 (and .def_395 .def_415)))
(let ((.def_318 (and .PC.3.next .def_263)))
(let ((.def_408 (and .PC.4.next .def_318)))
(let ((.def_409 (and .def_66 .def_408)))
(let ((.def_322 (and .def_78 .def_321)))
(let ((.def_323 (and .def_38 .def_322)))
(let ((.def_324 (and .def_42 .def_323)))
(let ((.def_325 (and .def_46 .def_324)))
(let ((.def_326 (and .def_87 .def_325)))
(let ((.def_327 (and .def_50 .def_326)))
(let ((.def_328 (and .def_90 .def_327)))
(let ((.def_329 (and .def_92 .def_328)))
(let ((.def_410 (and .def_329 .def_409)))
(let ((.def_411 (and .def_395 .def_410)))
(let ((.def_302 (and .PC.3.next .def_114)))
(let ((.def_403 (and .PC.4.next .def_302)))
(let ((.def_404 (and .def_66 .def_403)))
(let ((.def_307 (and .def_270 .def_306)))
(let ((.def_308 (and .def_38 .def_307)))
(let ((.def_309 (and .def_42 .def_308)))
(let ((.def_310 (and .def_46 .def_309)))
(let ((.def_311 (and .def_87 .def_310)))
(let ((.def_312 (and .def_50 .def_311)))
(let ((.def_313 (and .def_90 .def_312)))
(let ((.def_314 (and .def_92 .def_313)))
(let ((.def_405 (and .def_314 .def_404)))
(let ((.def_406 (and .def_395 .def_405)))
(let ((.def_286 (and .PC.3.next .def_285)))
(let ((.def_398 (and .PC.4.next .def_286)))
(let ((.def_399 (and .def_66 .def_398)))
(let ((.def_291 (and .def_289 .def_290)))
(let ((.def_292 (and .def_38 .def_291)))
(let ((.def_293 (and .def_42 .def_292)))
(let ((.def_294 (and .def_46 .def_293)))
(let ((.def_295 (and .def_87 .def_294)))
(let ((.def_296 (and .def_50 .def_295)))
(let ((.def_297 (and .def_90 .def_296)))
(let ((.def_298 (and .def_92 .def_297)))
(let ((.def_400 (and .def_298 .def_399)))
(let ((.def_401 (and .def_395 .def_400)))
(let ((.def_256 (= j__7$main.next l__3$main)))
(let ((.def_382 (and .def_256 .def_270)))
(let ((.def_383 (and .def_42 .def_382)))
(let ((.def_384 (and .def_46 .def_383)))
(let ((.def_385 (and .def_87 .def_384)))
(let ((.def_386 (and .def_50 .def_385)))
(let ((.def_387 (and .def_90 .def_386)))
(let ((.def_388 (and .def_92 .def_387)))
(let ((.def_392 (and .def_388 .def_391)))
(let ((.def_396 (and .def_392 .def_395)))
(let ((.def_378 (and .def_21 .def_377)))
(let ((.def_379 (and .def_24 .def_378)))
(let ((.def_380 (and .def_232 .def_379)))
(let ((.def_372 (and .def_21 .def_371)))
(let ((.def_373 (and .def_24 .def_372)))
(let ((.def_374 (and .def_232 .def_373)))
(let ((.def_367 (and .def_21 .def_366)))
(let ((.def_368 (and .def_24 .def_367)))
(let ((.def_369 (and .def_232 .def_368)))
(let ((.def_362 (and .def_21 .def_361)))
(let ((.def_363 (and .def_24 .def_362)))
(let ((.def_364 (and .def_232 .def_363)))
(let ((.def_265 (and .def_63 .def_264)))
(let ((.def_266 (and .def_66 .def_265)))
(let ((.def_358 (and .def_266 .def_357)))
(let ((.def_281 (and .def_21 .def_280)))
(let ((.def_282 (and .def_24 .def_281)))
(let ((.def_359 (and .def_282 .def_358)))
(let ((.def_334 (and .def_63 .def_333)))
(let ((.def_335 (and .def_66 .def_334)))
(let ((.def_345 (and .def_335 .def_344)))
(let ((.def_346 (and .def_282 .def_345)))
(let ((.def_319 (and .def_63 .def_318)))
(let ((.def_320 (and .def_66 .def_319)))
(let ((.def_330 (and .def_320 .def_329)))
(let ((.def_331 (and .def_282 .def_330)))
(let ((.def_303 (and .def_63 .def_302)))
(let ((.def_304 (and .def_66 .def_303)))
(let ((.def_315 (and .def_304 .def_314)))
(let ((.def_316 (and .def_282 .def_315)))
(let ((.def_287 (and .def_63 .def_286)))
(let ((.def_288 (and .def_66 .def_287)))
(let ((.def_299 (and .def_288 .def_298)))
(let ((.def_300 (and .def_282 .def_299)))
(let ((.def_131 (and .def_63 .def_130)))
(let ((.def_132 (and .def_66 .def_131)))
(let ((.def_278 (and .def_132 .def_277)))
(let ((.def_283 (and .def_278 .def_282)))
(let ((.def_257 (and .def_42 .def_256)))
(let ((.def_258 (and .def_46 .def_257)))
(let ((.def_259 (and .def_87 .def_258)))
(let ((.def_260 (and .def_50 .def_259)))
(let ((.def_261 (and .def_90 .def_260)))
(let ((.def_262 (and .def_92 .def_261)))
(let ((.def_267 (and .def_262 .def_266)))
(let ((.def_254 (and .def_21 .def_253)))
(let ((.def_255 (and .def_24 .def_254)))
(let ((.def_268 (and .def_255 .def_267)))
(let ((.def_248 (and .def_21 .def_247)))
(let ((.def_249 (and .def_24 .def_248)))
(let ((.def_250 (and .def_232 .def_249)))
(let ((.def_243 (and .def_21 .def_242)))
(let ((.def_244 (and .def_24 .def_243)))
(let ((.def_245 (and .def_232 .def_244)))
(let ((.def_238 (and .def_21 .def_237)))
(let ((.def_239 (and .def_24 .def_238)))
(let ((.def_240 (and .def_232 .def_239)))
(let ((.def_221 (and .def_21 .def_220)))
(let ((.def_222 (and .def_24 .def_221)))
(let ((.def_233 (and .def_222 .def_232)))
(let ((.def_207 (bvadd (_ bv4294967295 32) i__5$main)))
(let ((.def_208 (= i__5$main.next .def_207)))
(let ((.def_173 (and .def_79 .def_172)))
(let ((.def_190 (and .def_79 .def_173)))
(let ((.def_205 (and .def_172 .def_190)))
(let ((.def_209 (and .def_205 .def_208)))
(let ((.def_210 (and .def_38 .def_209)))
(let ((.def_211 (and .def_42 .def_210)))
(let ((.def_212 (and .def_46 .def_211)))
(let ((.def_213 (and .def_87 .def_212)))
(let ((.def_214 (and .def_50 .def_213)))
(let ((.def_215 (and .def_92 .def_214)))
(let ((.def_64 (and .def_61 .def_63)))
(let ((.def_67 (and .def_64 .def_66)))
(let ((.def_216 (and .def_67 .def_215)))
(let ((.def_153 (and .def_21 .def_152)))
(let ((.def_154 (and .def_24 .def_153)))
(let ((.def_217 (and .def_154 .def_216)))
(let ((.def_200 (and .def_63 .def_199)))
(let ((.def_201 (and .def_66 .def_200)))
(let ((.def_191 (and .def_157 .def_190)))
(let ((.def_192 (and .def_38 .def_191)))
(let ((.def_193 (and .def_42 .def_192)))
(let ((.def_194 (and .def_46 .def_193)))
(let ((.def_195 (and .def_87 .def_194)))
(let ((.def_196 (and .def_50 .def_195)))
(let ((.def_197 (and .def_90 .def_196)))
(let ((.def_198 (and .def_92 .def_197)))
(let ((.def_202 (and .def_198 .def_201)))
(let ((.def_203 (and .def_154 .def_202)))
(let ((.def_185 (and .def_63 .def_184)))
(let ((.def_186 (and .def_66 .def_185)))
(let ((.def_174 (and .def_78 .def_173)))
(let ((.def_175 (and .def_38 .def_174)))
(let ((.def_176 (and .def_42 .def_175)))
(let ((.def_177 (and .def_46 .def_176)))
(let ((.def_178 (and .def_87 .def_177)))
(let ((.def_179 (and .def_50 .def_178)))
(let ((.def_180 (and .def_90 .def_179)))
(let ((.def_181 (and .def_92 .def_180)))
(let ((.def_187 (and .def_181 .def_186)))
(let ((.def_188 (and .def_154 .def_187)))
(let ((.def_167 (and .def_63 .def_166)))
(let ((.def_168 (and .def_66 .def_167)))
(let ((.def_158 (and .def_79 .def_157)))
(let ((.def_159 (and .def_38 .def_158)))
(let ((.def_160 (and .def_42 .def_159)))
(let ((.def_161 (and .def_46 .def_160)))
(let ((.def_162 (and .def_87 .def_161)))
(let ((.def_163 (and .def_50 .def_162)))
(let ((.def_164 (and .def_90 .def_163)))
(let ((.def_165 (and .def_92 .def_164)))
(let ((.def_169 (and .def_165 .def_168)))
(let ((.def_170 (and .def_154 .def_169)))
(let ((.def_147 (and .def_63 .def_146)))
(let ((.def_148 (and .def_66 .def_147)))
(let ((.def_136 (and .def_38 .def_78)))
(let ((.def_137 (and .def_42 .def_136)))
(let ((.def_138 (and .def_46 .def_137)))
(let ((.def_139 (and .def_87 .def_138)))
(let ((.def_140 (and .def_50 .def_139)))
(let ((.def_141 (and .def_90 .def_140)))
(let ((.def_142 (and .def_92 .def_141)))
(let ((.def_149 (and .def_142 .def_148)))
(let ((.def_155 (and .def_149 .def_154)))
(let ((.def_82 (bvslt i__5$main n__1$main)))
(let ((.def_121 (not .def_82)))
(let ((.def_76 (bvadd (_ bv1 32) i__5$main)))
(let ((.def_77 (= l__3$main.next .def_76)))
(let ((.def_80 (and .def_77 .def_79)))
(let ((.def_122 (and .def_80 .def_121)))
(let ((.def_123 (and .def_38 .def_122)))
(let ((.def_124 (and .def_42 .def_123)))
(let ((.def_125 (and .def_87 .def_124)))
(let ((.def_126 (and .def_50 .def_125)))
(let ((.def_127 (and .def_90 .def_126)))
(let ((.def_128 (and .def_92 .def_127)))
(let ((.def_133 (and .def_128 .def_132)))
(let ((.def_103 (and .def_21 .def_102)))
(let ((.def_104 (and .def_24 .def_103)))
(let ((.def_134 (and .def_104 .def_133)))
(let ((.def_83 (and .def_80 .def_82)))
(let ((.def_72 (= NONDET (_ bv0 32))))
(let ((.def_107 (and .def_72 .def_83)))
(let ((.def_108 (and .def_38 .def_107)))
(let ((.def_109 (and .def_42 .def_108)))
(let ((.def_110 (and .def_87 .def_109)))
(let ((.def_111 (and .def_50 .def_110)))
(let ((.def_112 (and .def_90 .def_111)))
(let ((.def_113 (and .def_92 .def_112)))
(let ((.def_118 (and .def_113 .def_117)))
(let ((.def_119 (and .def_104 .def_118)))
(let ((.def_73 (not .def_72)))
(let ((.def_84 (and .def_73 .def_83)))
(let ((.def_70 (= j__7$main.next l__3$main.next)))
(let ((.def_85 (and .def_70 .def_84)))
(let ((.def_86 (and .def_42 .def_85)))
(let ((.def_88 (and .def_86 .def_87)))
(let ((.def_89 (and .def_50 .def_88)))
(let ((.def_91 (and .def_89 .def_90)))
(let ((.def_93 (and .def_91 .def_92)))
(let ((.def_99 (and .def_93 .def_98)))
(let ((.def_105 (and .def_99 .def_104)))
(let ((.def_33 (= NONDET.next (_ bv0 32))))
(let ((.def_30 (= n__1$main.next |__NONDET_INLINE_INIT__2__5$main#0|)))
(let ((.def_34 (and .def_30 .def_33)))
(let ((.def_28 (= n__1$main.next i__5$main.next)))
(let ((.def_35 (and .def_28 .def_34)))
(let ((.def_39 (and .def_35 .def_38)))
(let ((.def_43 (and .def_39 .def_42)))
(let ((.def_47 (and .def_43 .def_46)))
(let ((.def_51 (and .def_47 .def_50)))
(let ((.def_68 (and .def_51 .def_67)))
(let ((.def_25 (and .def_22 .def_24)))
(let ((.def_69 (and .def_25 .def_68)))
(let ((.def_106 (or .def_69 .def_105)))
(let ((.def_120 (or .def_106 .def_119)))
(let ((.def_135 (or .def_120 .def_134)))
(let ((.def_156 (or .def_135 .def_155)))
(let ((.def_171 (or .def_156 .def_170)))
(let ((.def_189 (or .def_171 .def_188)))
(let ((.def_204 (or .def_189 .def_203)))
(let ((.def_218 (or .def_204 .def_217)))
(let ((.def_234 (or .def_218 .def_233)))
(let ((.def_241 (or .def_234 .def_240)))
(let ((.def_246 (or .def_241 .def_245)))
(let ((.def_251 (or .def_246 .def_250)))
(let ((.def_269 (or .def_251 .def_268)))
(let ((.def_284 (or .def_269 .def_283)))
(let ((.def_301 (or .def_284 .def_300)))
(let ((.def_317 (or .def_301 .def_316)))
(let ((.def_332 (or .def_317 .def_331)))
(let ((.def_347 (or .def_332 .def_346)))
(let ((.def_360 (or .def_347 .def_359)))
(let ((.def_365 (or .def_360 .def_364)))
(let ((.def_370 (or .def_365 .def_369)))
(let ((.def_375 (or .def_370 .def_374)))
(let ((.def_381 (or .def_375 .def_380)))
(let ((.def_397 (or .def_381 .def_396)))
(let ((.def_402 (or .def_397 .def_401)))
(let ((.def_407 (or .def_402 .def_406)))
(let ((.def_412 (or .def_407 .def_411)))
(let ((.def_417 (or .def_412 .def_416)))
(let ((.def_420 (or .def_417 .def_419)))
(let ((.def_424 (or .def_420 .def_423)))
(let ((.def_428 (or .def_424 .def_427)))
(let ((.def_432 (or .def_428 .def_431)))
(let ((.def_436 (or .def_432 .def_435)))
(let ((.def_442 (or .def_436 .def_441)))
(let ((.def_455 (or .def_442 .def_454)))
(let ((.def_470 (or .def_455 .def_469)))
(let ((.def_485 (or .def_470 .def_484)))
(let ((.def_500 (or .def_485 .def_499)))
(let ((.def_514 (or .def_500 .def_513)))
(let ((.def_528 (or .def_514 .def_527)))
(let ((.def_541 (or .def_528 .def_540)))
(let ((.def_545 (or .def_541 .def_544)))
(let ((.def_549 (or .def_545 .def_548)))
(let ((.def_553 (or .def_549 .def_552)))
(let ((.def_557 (or .def_553 .def_556)))
(let ((.def_569 (or .def_557 .def_568)))
(let ((.def_575 (or .def_569 .def_574)))
(let ((.def_580 (or .def_575 .def_579)))
(let ((.def_585 (or .def_580 .def_584)))
(let ((.def_590 (or .def_585 .def_589)))
(let ((.def_603 (or .def_590 .def_602)))
(let ((.def_617 (or .def_603 .def_616)))
(let ((.def_628 (or .def_617 .def_627)))
(let ((.def_632 (or .def_628 .def_631)))
(let ((.def_636 (or .def_632 .def_635)))
(let ((.def_640 (or .def_636 .def_639)))
(let ((.def_644 (or .def_640 .def_643)))
(let ((.def_648 (or .def_644 .def_647)))
(let ((.def_653 (or .def_648 .def_652)))
(let ((.def_656 (or .def_653 .def_655)))
.def_656))))))))))))))))))))))))))))))))))))))))))))))))))))))))))))))))))))))))))))))))))))))))))))))))))))))))))))))))))))))))))))))))))))))))))))))))))))))))))))))))))))))))))))))))))))))))))))))))))))))))))))))))))))))))))))))))))))))))))))))))))))))))))))))))))))))))))))))))))))))))))))))))))))))))))))))))))))))))))))))))))))))))))))))))))))))))))))))))))))))))))))))))))))))))))))))))))))))))))))))))))))))))))))))))))))))))))))))))))))))))))))))))))))))))))))))))))))))))))))))))))))))))))))))))))))))))))))))))))))))))))))))))))))))))))))))))))))))))))))))))))))))))))))))))))))))))))))))))))))))))))))))))))))))))))) (state |.PC.0.next| |.PC.1.next| |.PC.2.next| |.PC.3.next| |.PC.4.next| |.PC.5.next| |j__7$main.next| |__RET__$main.next| |l__3$main.next| |k__9$main.next| |NONDET.next| |i__5$main.next| |n__1$main.next|))))
(assert (forall ((|.PC.3| Bool) (|.PC.2| Bool) (|.PC.1| Bool) (|.PC.0| Bool) (|.PC.0.next| Bool) (|.PC.1.next| Bool) (|.PC.2.next| Bool) (|.PC.3.next| Bool) (|.PC.4.next| Bool) (|.PC.5.next| Bool) (|__RET__$main.next| (_ BitVec 32)) (|__RET__$main| (_ BitVec 32)) (|j__7$main.next| (_ BitVec 32)) (|j__7$main| (_ BitVec 32)) (|l__3$main.next| (_ BitVec 32)) (|l__3$main| (_ BitVec 32)) (|n__1$main| (_ BitVec 32)) (|n__1$main.next| (_ BitVec 32)) (|k__9$main.next| (_ BitVec 32)) (|k__9$main| (_ BitVec 32)) (|i__5$main| (_ BitVec 32)) (|i__5$main.next| (_ BitVec 32)) (|NONDET| (_ BitVec 32)) (|NONDET.next| (_ BitVec 32)) (|__NONDET_INLINE_INIT__2__5$main#0| (_ BitVec 32)) (|.PC.5| Bool) (|.PC.4| Bool)) (=> (state |.PC.0| |.PC.1| |.PC.2| |.PC.3| |.PC.4| |.PC.5| |j__7$main| |__RET__$main| |l__3$main| |k__9$main| |NONDET| |i__5$main| |n__1$main|) (let ((.def_21 (not .PC.4)))
(let ((.def_18 (not .PC.3)))
(let ((.def_15 (not .PC.2)))
(let ((.def_12 (not .PC.1)))
(let ((.def_10 (not .PC.0)))
(let ((.def_13 (and .def_10 .def_12)))
(let ((.def_16 (and .def_13 .def_15)))
(let ((.def_19 (and .def_16 .def_18)))
(let ((.def_22 (and .def_19 .def_21)))
(let ((.def_654 (and .def_22 .PC.5)))
(let ((.def_657 (not .def_654)))
.def_657))))))))))))))
(check-sat)
